20	5
0	3	1	2	3
1	2	21	13
2	1	11
3	2	12	7
4	1	15
5	1	7
6	2	13	4
7	1	8
8	1	9
9	2	16	6
10	4	4	14	18	16
11	3	20	10	5
12	1	19
13	1	21
14	1	21
15	1	21
16	1	21
17	1	21
18	1	21
19	1	21
20	1	21
21	0
0	0	0	0	0	0	0
1	9	1	1	2	1	5
2	9	1	5	0	2	5
3	2	0	0	0	1	0
4	7	0	5	5	2	0
5	8	1	3	0	1	1
6	7	4	0	0	0	3
7	8	1	0	4	0	2
8	1	0	0	0	3	0
9	6	0	0	1	0	3
10	1	0	0	0	0	3
11	8	5	2	0	1	0
12	5	3	0	1	1	4
13	1	1	2	1	5	2
14	1	0	4	0	4	0
15	7	0	0	0	4	0
16	9	2	0	0	0	5
17	1	2	5	0	0	0
18	8	5	0	0	0	4
19	10	0	0	0	0	4
20	9	0	1	0	0	4
21	0	0	0	0	0	0
6	6	5	4	8
